c Random Network
p max    10      20
n         1  s
n        10  t
a       8       3      20
a       3       4      26
a       7       5      40
a       3       7      34
a       8       5       7
a       7       8      49
a      10       3      22
a       1       7      17
a       6       8      29
a       7       2      17
a       1       5      35
a       2       6      20
a       4       8      34
a       5       8      17
a       1       2      36
a       4       1      43
a       9       4      38
a       9       8      16
a       7       9      20
a       4       7      29
